45689
1 1 1 0 1 0 0 1 1 0 1 0 0 0 0 1 0 0 0 1 0 0 0 0 0 1 0 1 0 0 
27 19 2 7 2 4 2 27 27 27 4 7 10 8 7 7 1 10 27 7 27 7 2 2 10 7 27 19 15 2 19 19 4 15 27 7 8 8 2 1 7 15 7 4 8 19 1 2 19 10 7 15 0 2 8 4 25 8 7 25 4 0 7 8 8 25 0 19 19 25 7 4 19 8 10 10 10 10 8 7 10 0 8 25 4 10 4 2 27 25 27 19 25 25 0 8 7 19 0 7 19 1 25 7 4 0 4 27 1 1 19 4 27 7 7 8 27 7 1 8 19 7 1 19 15 7 2 25 19 0 7 2 25 10 1 8 1 8 7 10 25 27 1 25 25 2 2 2 27 25 0 0 10 0 8 25 2 7 1 1 1 27 10 0 1 27 1 4 1 15 1 8 7 8 4 0 0 10 4 10 1 1 0 7 25 8 1 1 7 2 2 15 4 4 25 4 7 15 10 19 